Set parameter TSPort to value 51199
Set parameter TokenServer to value "open-license1.lanl.gov"
Set parameter TimeLimit to value 1024
Set parameter Threads to value 1
Gurobi Optimizer version 10.0.3 build v10.0.3rc0 (linux64)

CPU model: Intel(R) Xeon(R) CPU E5-2695 v4 @ 2.10GHz, instruction set [SSE2|AVX|AVX2]
Thread count: 36 physical cores, 72 logical processors, using up to 1 threads

Optimize a model with 0 rows, 1940 columns and 0 nonzeros
Model fingerprint: 0xdf049a5c
Model has 8869 quadratic objective terms
Variable types: 0 continuous, 1940 integer (1940 binary)
Coefficient statistics:
  Matrix range     [0e+00, 0e+00]
  Objective range  [2e+00, 3e+01]
  QObjective range [8e+00, 8e+00]
  Bounds range     [1e+00, 1e+00]
  RHS range        [0e+00, 0e+00]
Found heuristic solution: objective 0.0000000
Found heuristic solution: objective -3310.000000
Found heuristic solution: objective -11972.00000
Found heuristic solution: objective -12012.00000
Presolve removed 0 rows and 3 columns
Presolve time: 0.33s
Presolved: 8866 rows, 10803 columns, 26598 nonzeros
Variable types: 0 continuous, 10803 integer (10803 binary)

Root relaxation: objective -1.666700e+04, 2700 iterations, 0.04 seconds (0.02 work units)

    Nodes    |    Current Node    |     Objective Bounds      |     Work
 Expl Unexpl |  Obj  Depth IntInf | Incumbent    BestBd   Gap | It/Node Time

     0     0 -16667.000    0 1937 -12012.000 -16667.000  38.8%     -    0s
     0     0 -15525.000    0 2510 -12012.000 -15525.000  29.2%     -    1s
     0     0 -15391.000    0 2580 -12012.000 -15391.000  28.1%     -    1s
     0     0 -15386.000    0 2585 -12012.000 -15386.000  28.1%     -    1s
     0     0 -15095.750    0 2791 -12012.000 -15095.750  25.7%     -    1s
     0     0 -15095.750    0 2762 -12012.000 -15095.750  25.7%     -    2s
     0     2 -15095.750    0 2758 -12012.000 -15095.750  25.7%     -    2s
   128   130 -14533.750   64 3236 -12012.000 -15087.417  25.6%   122    5s
   466   468 -13308.500  234 3758 -12012.000 -15087.417  25.6%  89.2   10s
   775   777 -12486.000  389 3699 -12012.000 -15087.417  25.6%  78.3   15s
  1045  1020 -14748.750   40 4433 -12012.000 -15086.083  25.6%  69.2   21s
  1050  1023 -12650.000  351 3405 -12012.000 -14403.667  19.9%  68.9   25s
  1060  1030 -12455.000  396 3770 -12012.000 -14113.787  17.5%  68.3   37s
  1061  1031 -13527.500  202 4172 -12012.000 -14052.910  17.0%  68.2   45s
  1062  1031 -12303.000  428 4340 -12012.000 -14032.791  16.8%  68.1   51s
  1064  1033 -12213.000  454 4535 -12012.000 -14023.601  16.7%  68.0   55s
  1073  1039 -12879.000  305 5001 -12012.000 -13787.188  14.8%  67.4   93s
  1074  1039 -13203.667  251 5250 -12012.000 -13752.024  14.5%  67.4  116s
  1075  1040 -12433.000  401 5357 -12012.000 -13742.164  14.4%  67.3  127s
  1076  1041 -13659.500  180 5460 -12012.000 -13740.179  14.4%  67.2  130s
  1079  1043 -13737.633  107 5500 -12012.000 -13737.633  14.4%  67.1  135s
  1085  1047 -13128.000  266 6068 -12012.000 -13567.890  13.0%  66.7  194s
  1086  1047 -12161.000  468 6454 -12012.000 -13530.838  12.6%  66.6  236s
  1087  1048 -13523.315  163 6447 -12012.000 -13523.315  12.6%  66.6  249s
  1088  1049 -13520.232   78 6578 -12012.000 -13520.232  12.6%  66.5  256s
  1089  1049 -12541.000  381 6627 -12012.000 -13518.650  12.5%  66.4  261s
  1091  1051 -12727.500  334 6721 -12012.000 -13517.554  12.5%  66.3  266s
  1096  1054 -13517.373    4 6742 -12012.000 -13517.373  12.5%  66.0  271s
  1097  1055 -12076.500  495 7186 -12012.000 -13405.443  11.6%  66.0  347s
  1098  1055 -12252.000  444 7400 -12012.000 -13380.855  11.4%  65.9  390s
  1099  1056 -12073.500  496 7427 -12012.000 -13375.029  11.3%  65.8  406s
  1100  1057 -12459.000  394 7581 -12012.000 -13373.132  11.3%  65.8  414s
  1101  1057 -13371.767  160 7588 -12012.000 -13371.767  11.3%  65.7  420s
  1103  1059 -12632.000  354 7651 -12012.000 -13371.156  11.3%  65.6  425s
  1108  1062 -13371.023   28 7726 -12012.000 -13371.023  11.3%  65.3  430s
  1109  1063 -12915.000  300 8081 -12012.000 -13283.430  10.6%  65.2  517s
  1110  1063 -13266.125  127 8437 -12012.000 -13266.125  10.4%  65.2  571s
  1111  1064 -12472.000  392 8486 -12012.000 -13262.322  10.4%  65.1  593s
  1112  1065 -13260.673   87 8594 -12012.000 -13260.673  10.4%  65.1  603s
  1113  1065 -12075.500  495 8633 -12012.000 -13260.082  10.4%  65.0  608s
  1114  1066 -12691.000  343 8660 -12012.000 -13259.391  10.4%  65.0  614s
  1115  1067 -13259.273  178 8639 -12012.000 -13259.273  10.4%  64.9  616s
  1119  1069 -13259.203   35 8723 -12012.000 -13259.203  10.4%  64.7  621s
  1120  1070 -12459.000  394 8716 -12012.000 -13215.743  10.0%  64.6  695s
  1121  1071 -12384.000  413 8889 -12012.000 -13207.161  9.95%  64.5  734s
  1122  1071 -13205.454  191 8903 -12012.000 -13205.454  9.94%  64.5  746s
  1123  1072 -13129.500  267 8927 -12012.000 -13205.001  9.93%  64.4  751s
  1125  1073 -12981.000  289 8968 -12012.000 -13204.749  9.93%  64.3  756s
  1129  1076 -13204.706  235 9001 -12012.000 -13204.706  9.93%  64.1  760s
  1130  1077 -12509.000  387 8881 -12012.000 -13170.227  9.64%  64.0  839s
  1131  1077 -13163.058  168 9028 -12012.000 -13163.058  9.58%  64.0  881s
  1132  1078 -13161.667   17 9030 -12012.000 -13161.667  9.57%  63.9  897s
  1133  1079 -13161.063  193 9095 -12012.000 -13161.063  9.57%  63.9  903s
  1134  1079 -13160.831  146 9121 -12012.000 -13160.831  9.56%  63.8  907s
  1136  1081 -13160.760   42 9147 -12012.000 -13160.760  9.56%  63.7  910s
  1139  1083 -13134.374   48 9081 -12012.000 -13134.374  9.34%  63.5  980s
  1140  1083 -12658.000  350 9165 -12012.000 -13129.768  9.31%  63.5 1009s
  1141  1084 -13128.908  110 9211 -12012.000 -13128.908  9.30%  63.4 1019s
  1142  1085 -13128.666   56 9203 -12012.000 -13128.666  9.30%  63.4 1023s

Cutting planes:
  Gomory: 78
  MIR: 316
  Flow cover: 2757
  Zero half: 1467
  Mod-K: 64
  RLT: 401
  BQP: 580

Explored 1142 nodes (1003293 simplex iterations) in 1024.00 seconds (1326.03 work units)
Thread count was 1 (of 72 available processors)

Solution count 4: -12012 -11972 -3310 0 

Time limit reached
Best objective -1.201200000000e+04, best bound -1.312800000000e+04, gap 9.2907%

User-callback calls 9410, time in user-callback 0.05 sec

BQP_SOLUTION, 1940, 8869, -4214.000000, 1024.000890, 1, -1, -1, 1, 1, 1, -1, 1, 1, -1, -1, 1, -1, 1, -1, 1, 1, -1, -1, -1, -1, 1, -1, 1, -1, 1, 1, 1, -1, 1, -1, 1, -1, -1, -1, 1, 1, -1, 1, 1, -1, 1, -1, 1, 1, 1, 1, -1, 1, -1, -1, -1, 1, 1, 1, 1, -1, -1, 1, 1, -1, -1, -1, 1, 1, -1, 1, -1, 1, -1, -1, 1, 1, 1, 1, -1, -1, 1, 1, -1, 1, -1, 1, -1, -1, -1, 1, -1, -1, 1, 1, 1, 1, -1, -1, 1, 1, -1, -1, 1, -1, 1, -1, -1, 1, 1, -1, 1, -1, 1, -1, -1, 1, 1, 1, -1, 1, 1, 1, -1, -1, -1, 1, 1, -1, 1, -1, 1, -1, 1, -1, 1, 1, 1, 1, -1, 1, -1, -1, 1, 1, 1, -1, 1, -1, -1, 1, -1, -1, -1, 1, -1, 1, -1, 1, -1, -1, -1, -1, 1, -1, -1, -1, 1, 1, -1, -1, -1, 1, -1, -1, 1, -1, -1, -1, -1, -1, 1, -1, 1, 1, -1, 1, -1, -1, -1, 1, 1, -1, 1, -1, 1, 1, -1, -1, -1, -1, -1, 1, -1, 1, -1, -1, -1, 1, 1, -1, 1, -1, 1, -1, -1, -1, -1, -1, 1, -1, 1, -1, -1, -1, -1, 1, -1, -1, -1, -1, -1, -1, 1, -1, 1, -1, -1, -1, 1, -1, -1, 1, 1, -1, 1, 1, 1, 1, -1, -1, 1, -1, -1, -1, -1, 1, 1, -1, -1, 1, -1, -1, 1, 1, -1, 1, 1, -1, -1, 1, -1, -1, -1, -1, 1, -1, -1, 1, 1, -1, 1, 1, 1, 1, -1, 1, -1, 1, -1, -1, -1, 1, 1, 1, -1, 1, -1, 1, -1, 1, -1, 1, -1, 1, 1, -1, 1, -1, -1, 1, 1, -1, 1, 1, -1, -1, -1, 1, 1, -1, 1, 1, 1, -1, 1, -1, -1, 1, -1, 1, 1, -1, -1, -1, -1, 1, 1, 1, -1, 1, -1, 1, -1, -1, 1, 1, 1, 1, 1, -1, 1, -1, 1, 1, 1, -1, 1, -1, 1, 1, -1, -1, -1, 1, -1, 1, 1, -1, 1, 1, 1, 1, 1, -1, 1, 1, 1, 1, -1, -1, -1, 1, 1, 1, 1, 1, -1, -1, 1, -1, 1, 1, 1, 1, -1, 1, -1, -1, -1, 1, 1, 1, 1, -1, -1, 1, -1, -1, 1, 1, 1, 1, 1, 1, -1, 1, -1, -1, -1, 1, 1, 1, -1, 1, 1, 1, -1, -1, -1, 1, 1, 1, -1, 1, -1, 1, -1, 1, 1, 1, -1, -1, -1, -1, 1, -1, 1, 1, 1, 1, -1, 1, -1, 1, 1, 1, 1, -1, 1, 1, 1, -1, 1, -1, 1, 1, 1, -1, 1, 1, -1, 1, -1, 1, 1, 1, 1, 1, 1, -1, 1, -1, 1, 1, 1, -1, 1, -1, 1, -1, -1, 1, 1, 1, -1, 1, 1, 1, 1, -1, 1, 1, -1, -1, 1, -1, -1, -1, -1, 1, 1, -1, 1, 1, -1, -1, 1, -1, -1, 1, 1, -1, 1, 1, 1, -1, 1, -1, 1, -1, 1, -1, 1, -1, -1, 1, 1, 1, -1, -1, 1, -1, -1, 1, -1, 1, 1, -1, -1, 1, -1, -1, 1, -1, 1, -1, 1, -1, -1, 1, -1, -1, -1, 1, -1, -1, -1, -1, 1, 1, -1, -1, 1, -1, 1, -1, -1, -1, 1, 1, -1, 1, -1, 1, -1, 1, -1, 1, -1, -1, -1, 1, -1, 1, -1, -1, 1, -1, 1, -1, -1, -1, 1, -1, -1, -1, 1, -1, -1, -1, -1, 1, -1, -1, 1, -1, -1, -1, -1, -1, -1, 1, -1, 1, -1, -1, -1, -1, -1, 1, -1, -1, 1, 1, 1, -1, -1, 1, -1, -1, -1, 1, 1, 1, -1, -1, 1, -1, 1, -1, 1, 1, -1, -1, -1, -1, -1, -1, 1, 1, 1, -1, -1, -1, -1, 1, -1, -1, -1, 1, -1, 1, 1, 1, -1, -1, -1, 1, 1, -1, -1, 1, -1, 1, -1, 1, 1, 1, 1, -1, 1, -1, -1, -1, -1, 1, -1, -1, -1, 1, -1, -1, -1, 1, -1, -1, 1, -1, -1, 1, -1, 1, 1, 1, -1, 1, -1, 1, -1, -1, -1, -1, 1, -1, 1, -1, 1, 1, -1, -1, 1, 1, 1, 1, -1, -1, 1, -1, -1, 1, 1, -1, 1, -1, 1, 1, 1, -1, 1, 1, -1, 1, 1, 1, 1, 1, -1, 1, 1, 1, 1, -1, 1, -1, -1, 1, -1, -1, 1, 1, 1, 1, -1, 1, -1, -1, -1, 1, 1, 1, 1, -1, 1, -1, -1, 1, 1, 1, 1, 1, -1, 1, -1, -1, -1, 1, 1, -1, 1, -1, -1, 1, 1, -1, 1, 1, 1, 1, -1, 1, -1, -1, -1, 1, 1, 1, 1, -1, 1, -1, -1, 1, 1, 1, -1, 1, 1, -1, 1, -1, -1, 1, 1, 1, -1, 1, -1, 1, -1, -1, 1, 1, 1, 1, 1, -1, -1, -1, -1, -1, 1, -1, -1, 1, 1, 1, -1, 1, -1, 1, 1, 1, 1, -1, -1, -1, -1, 1, 1, -1, 1, -1, 1, -1, -1, 1, 1, 1, 1, 1, 1, -1, -1, -1, 1, 1, 1, 1, -1, -1, 1, -1, 1, -1, 1, -1, 1, 1, 1, -1, 1, 1, 1, 1, -1, 1, 1, 1, -1, -1, -1, 1, 1, 1, -1, 1, 1, -1, 1, -1, 1, 1, -1, 1, -1, 1, -1, -1, -1, 1, 1, -1, 1, -1, 1, -1, 1, -1, 1, 1, 1, 1, -1, -1, -1, -1, 1, -1, 1, 1, -1, -1, 1, 1, -1, 1, -1, 1, 1, 1, -1, 1, -1, -1, 1, 1, 1, -1, -1, 1, 1, -1, -1, 1, -1, 1, 1, -1, -1, 1, 1, 1, 1, -1, -1, 1, 1, -1, -1, 1, -1, 1, 1, -1, 1, -1, 1, -1, 1, 1, 1, -1, 1, 1, 1, -1, 1, 1, -1, -1, 1, 1, 1, -1, -1, 1, 1, -1, -1, -1, 1, 1, -1, -1, 1, -1, -1, 1, 1, -1, 1, -1, -1, 1, 1, -1, 1, -1, 1, 1, -1, 1, 1, 1, -1, 1, 1, 1, -1, 1, -1, 1, -1, -1, 1, -1, -1, 1, 1, -1, 1, 1, -1, 1, -1, -1, 1, 1, -1, 1, 1, 1, 1, -1, -1, 1, 1, 1, 1, 1, 1, 1, -1, 1, -1, 1, 1, 1, -1, -1, 1, -1, -1, 1, -1, 1, -1, 1, -1, 1, -1, -1, -1, -1, 1, -1, 1, -1, 1, -1, -1, 1, -1, 1, 1, -1, -1, 1, 1, -1, -1, -1, 1, 1, 1, -1, 1, -1, -1, 1, 1, -1, 1, -1, -1, -1, -1, -1, -1, 1, 1, -1, -1, 1, -1, -1, -1, -1, 1, -1, 1, -1, 1, -1, -1, -1, -1, -1, 1, -1, -1, 1, -1, -1, -1, 1, 1, -1, -1, 1, 1, -1, 1, -1, 1, 1, -1, -1, -1, 1, -1, -1, -1, 1, 1, 1, -1, 1, -1, 1, -1, -1, 1, 1, -1, -1, -1, 1, -1, 1, -1, 1, -1, -1, 1, -1, 1, 1, 1, -1, 1, 1, -1, -1, -1, 1, -1, 1, 1, 1, -1, 1, -1, -1, 1, 1, -1, 1, 1, -1, 1, -1, 1, 1, 1, 1, 1, 1, -1, -1, -1, 1, 1, 1, 1, -1, 1, -1, -1, -1, 1, 1, 1, -1, 1, -1, 1, -1, -1, 1, 1, 1, -1, 1, 1, 1, -1, -1, 1, 1, -1, 1, 1, 1, 1, -1, -1, -1, 1, 1, -1, -1, 1, 1, -1, 1, -1, 1, 1, -1, 1, 1, 1, -1, -1, 1, 1, -1, -1, 1, 1, 1, -1, 1, 1, 1, -1, 1, -1, 1, 1, -1, 1, 1, 1, -1, -1, -1, 1, -1, -1, -1, 1, 1, -1, -1, -1, 1, 1, -1, 1, 1, 1, 1, -1, -1, 1, -1, -1, -1, -1, 1, 1, -1, -1, 1, 1, -1, -1, 1, 1, 1, -1, -1, 1, -1, -1, 1, 1, 1, 1, -1, -1, 1, 1, -1, -1, -1, 1, 1, -1, -1, 1, 1, -1, 1, 1, 1, 1, -1, -1, -1, 1, -1, 1, 1, 1, 1, -1, -1, -1, 1, -1, -1, 1, 1, 1, -1, 1, -1, 1, -1, -1, 1, 1, -1, -1, -1, 1, -1, -1, 1, 1, 1, 1, -1, -1, 1, 1, -1, 1, -1, 1, -1, -1, -1, 1, -1, 1, 1, 1, 1, -1, -1, 1, 1, -1, -1, -1, 1, 1, -1, -1, -1, 1, 1, -1, -1, 1, 1, 1, -1, -1, 1, -1, 1, -1, 1, 1, -1, -1, -1, 1, -1, 1, -1, -1, 1, -1, -1, -1, -1, -1, -1, -1, -1, 1, -1, -1, -1, 1, -1, 1, -1, -1, 1, -1, -1, -1, 1, -1, -1, 1, -1, 1, -1, -1, -1, 1, -1, -1, 1, -1, 1, -1, 1, -1, 1, 1, -1, 1, -1, 1, -1, -1, 1, 1, -1, -1, 1, -1, -1, -1, -1, -1, 1, -1, -1, 1, -1, 1, 1, -1, 1, 1, -1, -1, 1, -1, 1, -1, 1, 1, 1, -1, 1, -1, -1, 1, -1, -1, 1, 1, -1, -1, 1, -1, 1, 1, -1, -1, 1, -1, -1, 1, 1, 1, 1, -1, -1, 1, -1, -1, 1, -1, 1, 1, -1, 1, 1, -1, -1, -1, -1, 1, 1, 1, -1, -1, 1, -1, 1, 1, -1, -1, 1, -1, 1, 1, -1, -1, 1, -1, 1, 1, -1, -1, 1, -1, -1, 1, -1, 1, 1, -1, 1, 1, 1, -1, -1, -1, 1, 1, -1, 1, 1, -1, 1, -1, 1, 1, -1, 1, 1, 1, -1, 1, -1, 1, 1, 1, 1, 1, 1, -1, -1, 1, 1, -1, 1, 1, -1, 1, -1, -1, -1, -1, 1, 1, -1, -1, 1, 1, -1, 1, -1, 1, -1, 1, 1, -1, -1, -1, 1, -1, 1, -1, -1, 1, 1, 1, -1, 1, -1, 1, -1, 1, -1, 1, 1, -1, 1, -1, -1, 1, -1, 1, 1, 1, -1, 1, -1, 1, 1, 1, 1, -1, 1, -1, 1, 1, -1, 1, -1, 1, -1, 1, 1, 1, 1, -1, -1, 1, 1, 1, 1, 1, 1, -1, -1, 1, 1, -1, 1, 1, -1, 1, 1, -1, -1, 1, 1, 1, -1, 1, 1, -1, 1, -1, -1, 1, -1, 1, 1, 1, 1, 1, 1, -1, 1, 1, 1, 1, 1, 1, -1, 1, -1, 1, 1, -1, 1, -1, 1, 1, 1, -1, 1, 1, 1, 1, 1, 1, 1, 1, 1, 1, -1, 1, 1, 1, 1, 1, 1, -1, 1, 1, -1, 1, -1, 1, 1, 1, -1, 1, 1, -1, 1, -1, 1, -1, 1, -1, 1, 1, -1, 1, -1, -1, 1, 1, 1, 1, 1, -1, -1, -1, 1, 1, 1, 1, 1, 1, -1, 1, -1, 1, 1, -1, 1, 1, -1, -1, 1, 1, 1, 1, 1, 1, 1, -1, 1, 1, -1, 1, 1, -1, 1, 1, 1, 1, 1, -1, -1, 1, -1, 1, 1, -1, 1, 1, -1, 1, 1, -1, -1, 1, 1, -1, 1, -1, 1, 1, -1, -1, 1, -1, 1, -1, -1, 1, 1, 1, -1, 1, 1, 1, 1, -1, 1, 1, -1, 1, 1, 1, 1, 1, -1, -1, -1, 1, 1, -1, -1, 1, -1, -1, -1, 1, 1, -1, 1, 1, 1, 1, -1, 1, -1, 1, 1, 1, -1, 1, 1, 1, -1, 1, 1, -1, -1, 1, 1, 1
BQP_DATA, 1940, 8869, -4214.000000, -5330.000000, -12012.000000, -13128.000000, 1024.000890, 4682, 1142
